\ENCODING=ISO-8859-1
\Problem name: GMKP - Concert Technologies

Maximize
 obj: 19 x_1_1 + 18 x_1_2 + 14 x_1_3 + 27 x_1_4 + 70 x_1_5 + 38 x_1_6
      + 42 x_1_7 + 11 x_1_8 + 75 x_1_9 + 84 x_1_10 + 100 x_1_11 + 36 x_1_12
      + 97 x_1_13 + 51 x_1_14 + 38 x_1_15 + 88 x_1_16 + 92 x_1_17 + 19 x_1_18
      + 46 x_1_19 + 31 x_1_20 + 84 x_1_21 + 55 x_1_22 + 66 x_1_23 + 98 x_1_24
      + 29 x_1_25 + 49 x_2_1 + 29 x_2_2 + 92 x_2_3 + 28 x_2_4 + 24 x_2_5
      + 29 x_2_6 + 24 x_2_7 + 56 x_2_8 + 94 x_2_9 + 68 x_2_10 + 15 x_2_11
      + 34 x_2_12 + 47 x_2_13 + 10 x_2_14 + 58 x_2_15 + 61 x_2_16 + 22 x_2_17
      + 73 x_2_18 + 42 x_2_19 + 69 x_2_20 + 10 x_2_21 + 82 x_2_22 + 66 x_2_23
      + 13 x_2_24 + 65 x_2_25 + 47 x_3_1 + 21 x_3_2 + 97 x_3_3 + 78 x_3_4
      + 40 x_3_5 + 65 x_3_6 + 31 x_3_7 + 85 x_3_8 + 98 x_3_9 + 79 x_3_10
      + 55 x_3_11 + 95 x_3_12 + 18 x_3_13 + 46 x_3_14 + 66 x_3_15 + 99 x_3_16
      + 46 x_3_17 + 63 x_3_18 + 98 x_3_19 + 74 x_3_20 + 77 x_3_21 + 75 x_3_22
      + 41 x_3_23 + 97 x_3_24 + 51 x_3_25
Subject To
 capacity_1:            28 x_1_1 + 43 x_1_2 + 100 x_1_3 + 42 x_1_4 + 30 x_1_5
                        + 34 x_1_6 + 38 x_1_7 + 62 x_1_8 + 44 x_1_9 + 99 x_1_10
                        + 70 x_1_11 + 93 x_1_12 + 77 x_1_13 + 61 x_1_14
                        + 67 x_1_15 + 63 x_1_16 + 90 x_1_17 + 66 x_1_18
                        + 95 x_1_19 + 37 x_1_20 + 24 x_1_21 + 43 x_1_22
                        + 16 x_1_23 + 33 x_1_24 + 57 x_1_25 + 87 y_1_1
                        + 56 y_1_2 + 79 y_1_3 + 79 y_1_4 + 81 y_1_5 <= 42
 capacity_2:            28 x_2_1 + 43 x_2_2 + 100 x_2_3 + 42 x_2_4 + 30 x_2_5
                        + 34 x_2_6 + 38 x_2_7 + 62 x_2_8 + 44 x_2_9 + 99 x_2_10
                        + 70 x_2_11 + 93 x_2_12 + 77 x_2_13 + 61 x_2_14
                        + 67 x_2_15 + 63 x_2_16 + 90 x_2_17 + 66 x_2_18
                        + 95 x_2_19 + 37 x_2_20 + 24 x_2_21 + 43 x_2_22
                        + 16 x_2_23 + 33 x_2_24 + 57 x_2_25 + 87 y_2_1
                        + 56 y_2_2 + 79 y_2_3 + 79 y_2_4 + 81 y_2_5 <= 42
 capacity_3:            28 x_3_1 + 43 x_3_2 + 100 x_3_3 + 42 x_3_4 + 30 x_3_5
                        + 34 x_3_6 + 38 x_3_7 + 62 x_3_8 + 44 x_3_9 + 99 x_3_10
                        + 70 x_3_11 + 93 x_3_12 + 77 x_3_13 + 61 x_3_14
                        + 67 x_3_15 + 63 x_3_16 + 90 x_3_17 + 66 x_3_18
                        + 95 x_3_19 + 37 x_3_20 + 24 x_3_21 + 43 x_3_22
                        + 16 x_3_23 + 33 x_3_24 + 57 x_3_25 + 87 y_3_1
                        + 56 y_3_2 + 79 y_3_3 + 79 y_3_4 + 81 y_3_5 <= 42
 max_one_bin_x_1:       x_1_1 + x_2_1 + x_3_1 <= 1
 max_one_bin_x_2:       x_1_2 + x_2_2 + x_3_2 <= 1
 max_one_bin_x_3:       x_1_3 + x_2_3 + x_3_3 <= 1
 max_one_bin_x_4:       x_1_4 + x_2_4 + x_3_4 <= 1
 max_one_bin_x_5:       x_1_5 + x_2_5 + x_3_5 <= 1
 max_one_bin_x_6:       x_1_6 + x_2_6 + x_3_6 <= 1
 max_one_bin_x_7:       x_1_7 + x_2_7 + x_3_7 <= 1
 max_one_bin_x_8:       x_1_8 + x_2_8 + x_3_8 <= 1
 max_one_bin_x_9:       x_1_9 + x_2_9 + x_3_9 <= 1
 max_one_bin_x_10:      x_1_10 + x_2_10 + x_3_10 <= 1
 max_one_bin_x_11:      x_1_11 + x_2_11 + x_3_11 <= 1
 max_one_bin_x_12:      x_1_12 + x_2_12 + x_3_12 <= 1
 max_one_bin_x_13:      x_1_13 + x_2_13 + x_3_13 <= 1
 max_one_bin_x_14:      x_1_14 + x_2_14 + x_3_14 <= 1
 max_one_bin_x_15:      x_1_15 + x_2_15 + x_3_15 <= 1
 max_one_bin_x_16:      x_1_16 + x_2_16 + x_3_16 <= 1
 max_one_bin_x_17:      x_1_17 + x_2_17 + x_3_17 <= 1
 max_one_bin_x_18:      x_1_18 + x_2_18 + x_3_18 <= 1
 max_one_bin_x_19:      x_1_19 + x_2_19 + x_3_19 <= 1
 max_one_bin_x_20:      x_1_20 + x_2_20 + x_3_20 <= 1
 max_one_bin_x_21:      x_1_21 + x_2_21 + x_3_21 <= 1
 max_one_bin_x_22:      x_1_22 + x_2_22 + x_3_22 <= 1
 max_one_bin_x_23:      x_1_23 + x_2_23 + x_3_23 <= 1
 max_one_bin_x_24:      x_1_24 + x_2_24 + x_3_24 <= 1
 max_one_bin_x_25:      x_1_25 + x_2_25 + x_3_25 <= 1
 max_bk_bin_y_1:        y_1_1 + y_2_1 + y_3_1 <= 3
 max_bk_bin_y_2:        y_1_2 + y_2_2 + y_3_2 <= 3
 max_bk_bin_y_3:        y_1_3 + y_2_3 + y_3_3 <= 3
 max_bk_bin_y_4:        y_1_4 + y_2_4 + y_3_4 <= 3
 max_bk_bin_y_5:        y_1_5 + y_2_5 + y_3_5 <= 3
 dependent_decision_1:  x_1_1 + x_1_7 + x_1_10 + x_1_16 + x_1_22 - 25 y_1_1
                        <= 0
 dependent_decision_2:  x_1_2 + x_1_13 + x_1_18 + x_1_19 + x_1_24 - 25 y_1_2
                        <= 0
 dependent_decision_3:  x_1_3 + x_1_9 + x_1_11 + x_1_12 + x_1_14 - 25 y_1_3
                        <= 0
 dependent_decision_4:  x_1_4 + x_1_17 + x_1_20 + x_1_21 + x_1_23 - 25 y_1_4
                        <= 0
 dependent_decision_5:  x_1_5 + x_1_6 + x_1_8 + x_1_15 + x_1_25 - 25 y_1_5 <= 0
 dependent_decision_6:  x_2_1 + x_2_7 + x_2_10 + x_2_16 + x_2_22 - 25 y_2_1
                        <= 0
 dependent_decision_7:  x_2_2 + x_2_13 + x_2_18 + x_2_19 + x_2_24 - 25 y_2_2
                        <= 0
 dependent_decision_8:  x_2_3 + x_2_9 + x_2_11 + x_2_12 + x_2_14 - 25 y_2_3
                        <= 0
 dependent_decision_9:  x_2_4 + x_2_17 + x_2_20 + x_2_21 + x_2_23 - 25 y_2_4
                        <= 0
 dependent_decision_10: x_2_5 + x_2_6 + x_2_8 + x_2_15 + x_2_25 - 25 y_2_5 <= 0
 dependent_decision_11: x_3_1 + x_3_7 + x_3_10 + x_3_16 + x_3_22 - 25 y_3_1
                        <= 0
 dependent_decision_12: x_3_2 + x_3_13 + x_3_18 + x_3_19 + x_3_24 - 25 y_3_2
                        <= 0
 dependent_decision_13: x_3_3 + x_3_9 + x_3_11 + x_3_12 + x_3_14 - 25 y_3_3
                        <= 0
 dependent_decision_14: x_3_4 + x_3_17 + x_3_20 + x_3_21 + x_3_23 - 25 y_3_4
                        <= 0
 dependent_decision_15: x_3_5 + x_3_6 + x_3_8 + x_3_15 + x_3_25 - 25 y_3_5 <= 0
Bounds
 0 <= x_1_1 <= 1
 0 <= x_1_2 <= 1
 0 <= x_1_3 <= 1
 0 <= x_1_4 <= 1
 0 <= x_1_5 <= 1
 0 <= x_1_6 <= 1
 0 <= x_1_7 <= 1
 0 <= x_1_8 <= 1
 0 <= x_1_9 <= 1
 0 <= x_1_10 <= 1
 0 <= x_1_11 <= 1
 0 <= x_1_12 <= 1
 0 <= x_1_13 <= 1
 0 <= x_1_14 <= 1
 0 <= x_1_15 <= 1
 0 <= x_1_16 <= 1
 0 <= x_1_17 <= 1
 0 <= x_1_18 <= 1
 0 <= x_1_19 <= 1
 0 <= x_1_20 <= 1
 0 <= x_1_21 <= 1
 0 <= x_1_22 <= 1
 0 <= x_1_23 <= 1
 0 <= x_1_24 <= 1
 0 <= x_1_25 <= 1
 0 <= x_2_1 <= 1
 0 <= x_2_2 <= 1
 0 <= x_2_3 <= 1
 0 <= x_2_4 <= 1
 0 <= x_2_5 <= 1
 0 <= x_2_6 <= 1
 0 <= x_2_7 <= 1
 0 <= x_2_8 <= 1
 0 <= x_2_9 <= 1
 0 <= x_2_10 <= 1
 0 <= x_2_11 <= 1
 0 <= x_2_12 <= 1
 0 <= x_2_13 <= 1
 0 <= x_2_14 <= 1
 0 <= x_2_15 <= 1
 0 <= x_2_16 <= 1
 0 <= x_2_17 <= 1
 0 <= x_2_18 <= 1
 0 <= x_2_19 <= 1
 0 <= x_2_20 <= 1
 0 <= x_2_21 <= 1
 0 <= x_2_22 <= 1
 0 <= x_2_23 <= 1
 0 <= x_2_24 <= 1
 0 <= x_2_25 <= 1
 0 <= x_3_1 <= 1
 0 <= x_3_2 <= 1
 0 <= x_3_3 <= 1
 0 <= x_3_4 <= 1
 0 <= x_3_5 <= 1
 0 <= x_3_6 <= 1
 0 <= x_3_7 <= 1
 0 <= x_3_8 <= 1
 0 <= x_3_9 <= 1
 0 <= x_3_10 <= 1
 0 <= x_3_11 <= 1
 0 <= x_3_12 <= 1
 0 <= x_3_13 <= 1
 0 <= x_3_14 <= 1
 0 <= x_3_15 <= 1
 0 <= x_3_16 <= 1
 0 <= x_3_17 <= 1
 0 <= x_3_18 <= 1
 0 <= x_3_19 <= 1
 0 <= x_3_20 <= 1
 0 <= x_3_21 <= 1
 0 <= x_3_22 <= 1
 0 <= x_3_23 <= 1
 0 <= x_3_24 <= 1
 0 <= x_3_25 <= 1
 0 <= y_1_1 <= 1
 0 <= y_1_2 <= 1
 0 <= y_1_3 <= 1
 0 <= y_1_4 <= 1
 0 <= y_1_5 <= 1
 0 <= y_2_1 <= 1
 0 <= y_2_2 <= 1
 0 <= y_2_3 <= 1
 0 <= y_2_4 <= 1
 0 <= y_2_5 <= 1
 0 <= y_3_1 <= 1
 0 <= y_3_2 <= 1
 0 <= y_3_3 <= 1
 0 <= y_3_4 <= 1
 0 <= y_3_5 <= 1
Binaries
 x_1_1  x_1_2  x_1_3  x_1_4  x_1_5  x_1_6  x_1_7  x_1_8  x_1_9  x_1_10  x_1_11 
 x_1_12  x_1_13  x_1_14  x_1_15  x_1_16  x_1_17  x_1_18  x_1_19  x_1_20 
 x_1_21  x_1_22  x_1_23  x_1_24  x_1_25  x_2_1  x_2_2  x_2_3  x_2_4  x_2_5 
 x_2_6  x_2_7  x_2_8  x_2_9  x_2_10  x_2_11  x_2_12  x_2_13  x_2_14  x_2_15 
 x_2_16  x_2_17  x_2_18  x_2_19  x_2_20  x_2_21  x_2_22  x_2_23  x_2_24 
 x_2_25  x_3_1  x_3_2  x_3_3  x_3_4  x_3_5  x_3_6  x_3_7  x_3_8  x_3_9  x_3_10 
 x_3_11  x_3_12  x_3_13  x_3_14  x_3_15  x_3_16  x_3_17  x_3_18  x_3_19 
 x_3_20  x_3_21  x_3_22  x_3_23  x_3_24  x_3_25  y_1_1  y_1_2  y_1_3  y_1_4 
 y_1_5  y_2_1  y_2_2  y_2_3  y_2_4  y_2_5  y_3_1  y_3_2  y_3_3  y_3_4  y_3_5 
End
